4 10 6 18 14 11 8 15 16 5 9 19 12 0 7 3 1 17 2 13  
4 10 6 18 14 11 15 5 9 8 12 0 13 17 1 7 2 3 19 16  
4 10 6 18 14 11 8 15 16 5 9 19 12 0 7 2 17 1 3 13  
4 10 6 18 14 11 15 5 9 8 12 0 13 17 1 7 2 3 19 16  
4 10 6 18 14 11 8 15 16 5 9 19 12 0 2 17 3 13 1 7  
4 10 6 18 14 11 16 8 15 5 9 19 12 0 2 7 17 1 13 3  
4 10 6 18 14 11 8 17 12 9 15 19 16 5 2 7 0 1 3 13  
4 10 6 18 14 11 8 15 16 5 9 19 12 0 7 3 2 17 1 13  
4 10 6 18 14 11 16 8 15 5 9 19 12 0 2 17 3 13 1 7  
4 10 6 18 14 11 15 5 9 19 12 0 8 17 1 7 2 13 16 3  
4 10 6 18 14 11 8 15 16 5 9 19 12 0 7 3 1 17 2 13  
4 10 6 18 14 11 8 15 16 5 9 19 12 0 7 3 2 17 1 13  
4 10 6 18 14 11 15 5 8 7 9 19 12 0 2 16 17 1 13 3  
4 10 6 18 14 11 16 8 15 5 9 19 12 0 2 17 1 13 3 7  
4 10 6 18 14 11 8 15 16 5 9 19 12 0 2 3 17 1 7 13  
4 10 6 18 14 11 15 0 12 9 8 19 16 5 17 7 2 3 13 1  
4 10 6 18 14 11 15 5 8 7 9 19 12 0 2 13 17 1 16 3  
4 10 6 18 14 11 15 7 8 5 9 19 12 0 2 13 17 1 16 3  
4 10 6 18 14 11 15 7 8 5 9 19 12 0 2 13 17 1 16 3  
4 10 6 18 14 11 8 17 12 9 15 0 19 16 5 2 13 7 3 1  
4 10 6 18 14 11 15 0 12 9 8 19 16 5 2 7 17 1 3 13  
4 10 6 18 11 15 5 9 19 13 12 0 8 17 1 7 2 16 3 14  
4 10 6 18 14 7 8 11 17 12 9 19 16 15 5 0 1 2 3 13  
4 10 6 18 14 11 15 5 8 7 9 19 12 0 2 13 17 1 16 3  
4 10 6 18 14 11 8 15 5 9 13 19 12 0 2 7 17 1 16 3  
4 10 6 18 14 11 7 8 17 12 9 19 16 15 5 2 0 1 13 3  
4 10 6 18 14 11 7 8 17 12 9 13 15 16 5 2 0 1 19 3  
10 6 15 5 11 9 0 18 13 12 4 19 16 17 1 7 2 3 14 8  
4 10 6 18 14 11 16 8 15 5 9 19 12 0 17 1 2 13 7 3  
4 10 6 18 14 7 8 11 17 12 9 19 16 15 5 2 13 0 1 3  
4 10 6 18 14 11 0 8 15 16 5 17 12 9 13 1 7 2 3 19  
6 10 4 18 14 7 8 11 17 12 9 19 16 15 5 2 13 0 1 3  
4 10 6 18 14 11 8 17 12 9 15 19 16 5 2 7 0 1 13 3  
4 10 6 18 14 11 15 8 17 12 9 19 16 7 5 2 0 1 13 3  
4 10 6 18 15 11 14 7 5 9 8 19 12 0 17 1 2 13 16 3  
10 6 15 5 18 9 11 4 13 1 17 19 12 0 2 16 7 3 14 8  
4 10 6 18 14 11 8 15 16 5 9 19 12 0 2 3 17 1 7 13  
4 10 6 18 14 7 8 11 17 12 9 13 16 15 5 2 1 0 3 19  
4 10 6 18 14 8 15 0 12 9 11 19 16 5 7 17 2 3 13 1  
10 6 15 5 11 9 12 0 18 17 13 16 4 19 1 7 2 3 14 8  
4 10 18 14 6 11 7 8 17 12 9 19 15 16 5 2 13 0 1 3  
4 10 6 18 14 7 8 11 17 12 9 19 16 15 5 2 0 1 13 3  
4 10 6 18 14 8 15 0 12 9 11 19 16 5 7 17 3 13 1 2  
4 10 6 18 14 11 16 8 15 5 9 19 12 0 2 17 3 13 1 7  
